Route #1: 1 15 8 24 20 16 1
Route #2: 1 52 10 40 18 58 53 32 29 5 1
Route #3: 1 56 14 51 13 23 44 34 43 1
Route #4: 1 27 33 31 38 46 60 11 1
Route #5: 1 45 61 12 2 17 49 36 1
Route #6: 1 35 19 48 57 28 30 22 7 42 21 41 1
Route #7: 1 25 4 3 6 55 47 1
Route #8: 1 39 50 1
Route #9: 1 9 54 26 59 1
cost 1213
